100
128
32
13
24
4
6
4
43
28
40
16
25
19
2
8
34
43
43
41
51
28
12
60
4
24
9
18
52
17
7
52
8
1
35
47
46
24
12
40
34
18
9
61
27
41
14
15
20
15
49
27
52
63
64
26
42
24
32
56
37
35
39
30
5
54
30
23
33
62
32
26
56
22
46
24
33
24
38
43
45
24
51
35
20
22
34
34
31
29
49
47
32
36
44
60
29
48
61
30
39
37